(set-info :smt-lib-version 2.6)
(set-logic QF_BV)
(set-info :source |
 Patrice Godefroid, SAGE (systematic dynamic test generation)
 For more information: http://research.microsoft.com/en-us/um/people/pg/public_psfiles/ndss2008.pdf
|)
(set-info :category "industrial")
(set-info :status unsat)
(declare-fun T1_96 () (_ BitVec 8))
(declare-fun T4_96 () (_ BitVec 32))
(declare-fun T1_97 () (_ BitVec 8))
(declare-fun T1_98 () (_ BitVec 8))
(declare-fun T1_99 () (_ BitVec 8))
(assert (let ((?v_2 ((_ extract 7 0) (bvashr T4_96 ((_ zero_extend 24) (_ bv8 8))))) (?v_1 ((_ extract 7 0) (bvashr T4_96 ((_ zero_extend 24) (_ bv16 8))))) (?v_0 ((_ extract 7 0) (bvashr T4_96 ((_ zero_extend 24) (_ bv24 8)))))) (and true (= T4_96 (bvor (bvshl (bvor (bvshl (bvor (bvshl ((_ zero_extend 24) T1_99) (_ bv8 32)) ((_ zero_extend 24) T1_98)) (_ bv8 32)) ((_ zero_extend 24) T1_97)) (_ bv8 32)) ((_ zero_extend 24) T1_96))) (not (= T1_96 (_ bv115 8))) (bvule ?v_0 (_ bv122 8)) (bvule (_ bv97 8) ?v_0) (bvule ?v_1 (_ bv122 8)) (bvule (_ bv97 8) ?v_1) (bvule ?v_2 (_ bv122 8)) (bvule (_ bv97 8) ?v_2) (= T4_96 (_ bv1819440243 32)) (bvule T1_96 (_ bv122 8)) (bvule (_ bv97 8) T1_96))))
(check-sat)
(exit)
